(set-logic BV) (define-fun origCir ((n237 Bool) (n231 Bool) (n193 Bool) (n153 Bool)) Bool (and n237 (and n231 (and n193 n153)))) (synth-fun skel ((n237 Bool) (n231 Bool) (n193 Bool) (n153 Bool)) Bool) (declare-var n237 Bool) (declare-var n231 Bool) (declare-var n193 Bool) (declare-var n153 Bool) (constraint (= (origCir n237 n231 n193 n153) (skel n237 n231 n193 n153))) (check-synth)
